Version identifier: 22.1.0.0 | 2022-03-09 | 1a383f8ce
CPXPARAM_Read_DataCheck                          1
1 of 1 MIP starts provided solutions.
MIP start 'm1' defined initial solution with objective 54.0000.
Tried aggregator 3 times.
MIP Presolve eliminated 68194 rows and 6536 columns.
MIP Presolve modified 868 coefficients.
Aggregator did 62824 substitutions.
Reduced MIP has 7345 rows, 64668 columns, and 136798 nonzeros.
Reduced MIP has 64634 binaries, 34 generals, 0 SOSs, and 0 indicators.
Presolve time = 0.74 sec. (742.22 ticks)
Tried aggregator 1 time.
Detecting symmetries...
Reduced MIP has 7345 rows, 64668 columns, and 136798 nonzeros.
Reduced MIP has 64634 binaries, 34 generals, 0 SOSs, and 0 indicators.
Presolve time = 0.13 sec. (100.76 ticks)
Probing fixed 51 vars, tightened 0 bounds.
Probing changed sense of 13 constraints.
Probing time = 0.13 sec. (15.87 ticks)
Clique table members: 131186.
MIP emphasis: balance optimality and feasibility.
MIP search method: dynamic search.
Parallel mode: deterministic, using up to 8 threads.
Root relaxation solution time = 0.60 sec. (481.49 ticks)

        Nodes                                         Cuts/
   Node  Left     Objective  IInf  Best Integer    Best Bound    ItCnt     Gap

*     0+    0                           54.0000        0.0000           100.00%
      0     0       34.3895  5256       54.0000       34.3895       23   36.32%
      0     0        cutoff             54.0000                     43    0.00%
Elapsed time = 4.44 sec. (3298.83 ticks, tree = 0.01 MB, solutions = 1)

Zero-half cuts applied:  12
Gomory fractional cuts applied:  20

Root node processing (before b&c):
  Real time             =    4.45 sec. (3303.37 ticks)
Parallel b&c, 8 threads:
  Real time             =    0.00 sec. (0.00 ticks)
  Sync time (average)   =    0.00 sec.
  Wait time (average)   =    0.00 sec.
                          ------------
Total (root+branch&cut) =    4.45 sec. (3303.37 ticks)
